Problem:    
Rows:       256
Columns:    89 (72 integer, 72 binary)
Non-zeros:  800
Status:     INTEGER OPTIMAL
Objective:  value = 5.898258 (MINimum)

   No.   Row name        Activity     Lower bound   Upper bound
------ ------------    ------------- ------------- -------------
     1 r.5                    1005.9             0               
     2 r.6                  -997.007       -999.07               
     3 r.7                   5.89826             0               
     4 r.8                   3.46536      -997.722               
     5 r.9                    1005.9             0               
     6 r.10                 -995.768      -998.761               
     7 r.11                  5.89826             0               
     8 r.12                  4.23181      -997.142               
     9 r.13                  5.89826             0               
    10 r.14                  4.23181      -998.641               
    11 r.15                   1005.9             0               
    12 r.16                 -996.535      -997.859               
    13 r.17                   1005.9             0               
    14 r.18                 -998.675      -999.271               
    15 r.19                  5.89826             0               
    16 r.20                  1.32451      -998.157               
    17 r.21                   1005.9             0               
    18 r.22                 -997.936      -999.313               
    19 r.23                  5.89826             0               
    20 r.24                 -997.976      -998.572               
    21 r.25                   1005.9             0               
    22 r.26                 -999.404      -999.404               
    23 r.27                  5.89826             0               
    24 r.28                 0.595889       -998.52               
    25 r.29                  5.89826             0               
    26 r.30                 -995.032      -998.497               
    27 r.31                   1005.9             0               
    28 r.32                 -994.102      -997.567               
    29 r.33                   1005.9             0               
    30 r.34                 -994.102      -998.334               
    31 r.35                  5.89826             0               
    32 r.36                  5.89826      -997.157               
    33 r.37                        1             1             = 
    34 r.38                        1             1             = 
    35 r.39                        1             1             = 
    36 r.40                        1             1             = 
    37 r.41                        1             1             = 
    38 r.42                        1             1             = 
    39 r.43                        1             1             = 
    40 r.44                        1             1             = 
    41 r.45                        2             2               
    42 r.46                       -2         -1001               
    43 r.47                 -998.761      -998.761               
    44 r.48                     1000             2               
    45 r.49                    -1000         -1001               
    46 r.50                  2000.77      -997.142               
    47 r.51                     1001             2               
    48 r.52                    -1001         -1001               
    49 r.53                  2001.24      -998.641               
    50 r.54                     1001             2               
    51 r.55                    -1001         -1001               
    52 r.56                     2000      -997.859               
    53 r.57                        2             2               
    54 r.58                       -2         -1001               
    55 r.59                 -1.66866      -999.271               
    56 r.60                     1000             2               
    57 r.61                    -1000         -1001               
    58 r.62                  1997.86      -998.157               
    59 r.63                        2             2               
    60 r.64                       -2         -1001               
    61 r.65                -0.929542      -999.313               
    62 r.66                     1000             2               
    63 r.67                    -1000         -1001               
    64 r.68                  998.558      -998.572               
    65 r.69                 -997.603       -999.07               
    66 r.70                  2.86947      -997.722               
    67 r.71                 -997.603       -999.07               
    68 r.72                  2.86947      -997.722               
    69 r.73                 -998.025      -998.497               
    70 r.74                 -997.095      -997.567               
    71 r.75                 -998.497      -998.497               
    72 r.76                 -997.567      -997.567               
    73 r.77                        2             2               
    74 r.78                       -2         -1001               
    75 r.79                 -997.095      -998.334               
    76 r.80                     1000             2               
    77 r.81                    -1000         -1001               
    78 r.82                  2002.43      -997.157               
    79 r.83                        2             2               
    80 r.84                       -2         -1001               
    81 r.85                  998.761      0.929542               
    82 r.86                     1000             2               
    83 r.87                    -1000         -1001               
    84 r.88                  1999.23       2.27818               
    85 r.89                     1001             2               
    86 r.90                    -1001         -1001               
    87 r.91                     2000      -998.641               
    88 r.92                     1001             2               
    89 r.93                    -1001         -1001               
    90 r.94                  1999.23      -997.859               
    91 r.95                        2             2               
    92 r.96                       -2         -1001               
    93 r.97                  -2.9073      -999.271               
    94 r.98                     1000             2               
    95 r.99                    -1000         -1001               
    96 r.100                 1997.09      -998.157               
    97 r.101                       2             2               
    98 r.102                      -2         -1001               
    99 r.103                -2.16818      -999.313               
   100 r.104                    1000             2               
   101 r.105                   -1000         -1001               
   102 r.106                 997.792      -998.572               
   103 r.107                -996.364      -998.761               
   104 r.108                 3.63593      -997.142               
   105 r.109                -996.364      -998.761               
   106 r.110                 3.63593      -997.142               
   107 r.111                    1001             2               
   108 r.112                   -1001         -1001               
   109 r.113                 1000.74      -998.497               
   110 r.114                    1001             2               
   111 r.115                   -1001         -1001               
   112 r.116                 2001.67      -997.567               
   113 r.117                -998.334      -998.334               
   114 r.118                 1.66644      -997.157               
   115 r.119                -998.334      -998.334               
   116 r.120                 1.66644      -997.157               
   117 r.121                    1001             2               
   118 r.122                   -1001         -1001               
   119 r.123                 1998.76      0.929542               
   120 r.124                    1001             2               
   121 r.125                   -1001         -1001               
   122 r.126                    2000       2.27818               
   123 r.127                    1001             2               
   124 r.128                   -1001         -1001               
   125 r.129                    2000       1.23864               
   126 r.130                    1001             2               
   127 r.131                   -1001         -1001               
   128 r.132                 2000.77       2.85803               
   129 r.133                  2.9073      -998.641               
   130 r.134                -997.859      -997.859               
   131 r.135                  2.9073      -998.641               
   132 r.136                -997.859      -997.859               
   133 r.137                    1001             2               
   134 r.138                   -1001         -1001               
   135 r.139                 1997.83      -999.313               
   136 r.140                    1001             2               
   137 r.141                   -1001         -1001               
   138 r.142                 998.558      -998.572               
   139 r.143                 3.63593      -998.641               
   140 r.144                -997.131      -997.859               
   141 r.145                 3.63593      -998.641               
   142 r.146                -997.131      -997.859               
   143 r.147                    1000             2               
   144 r.148                   -1000         -1001               
   145 r.149                 1000.74      -998.497               
   146 r.150                       2             2               
   147 r.151                      -2         -1001               
   148 r.152                -997.567      -997.567               
   149 r.153                -998.334      -998.334               
   150 r.154                 1.66644      -997.157               
   151 r.155                -997.567      -998.334               
   152 r.156                  2.4329      -997.157               
   153 r.157                       2             2               
   154 r.158                      -2         -1001               
   155 r.159                 1.66866      0.929542               
   156 r.160                    1000             2               
   157 r.161                   -1000         -1001               
   158 r.162                 2002.14       2.27818               
   159 r.163                       2             2               
   160 r.164                      -2         -1001               
   161 r.165                  2.9073       1.23864               
   162 r.166                    1000             2               
   163 r.167                   -1000         -1001               
   164 r.168                 2002.91       2.85803               
   165 r.169                       2             2               
   166 r.170                      -2         -1001               
   167 r.171                -999.261      -999.313               
   168 r.172                    1000             2               
   169 r.173                   -1000         -1001               
   170 r.174                  1000.7      -998.572               
   171 r.175                -999.271      -999.271               
   172 r.176                0.728622      -998.157               
   173 r.177                -999.271      -999.271               
   174 r.178                0.728622      -998.157               
   175 r.179                    1001             2               
   176 r.180                   -1001         -1001               
   177 r.181                 1003.64      -998.497               
   178 r.182                    1001             2               
   179 r.183                   -1001         -1001               
   180 r.184                 2004.57      -997.567               
   181 r.185                -995.426      -998.334               
   182 r.186                 4.57375      -997.157               
   183 r.187                -995.426      -998.334               
   184 r.188                 4.57375      -997.157               
   185 r.189                       2             2               
   186 r.190                      -2         -1001               
   187 r.191                0.929542      0.929542               
   188 r.192                    1000             2               
   189 r.193                   -1000         -1001               
   190 r.194                 3001.44       2.27818               
   191 r.195                       2             2               
   192 r.196                      -2         -1001               
   193 r.197                 2.16818       1.23864               
   194 r.198                    1000             2               
   195 r.199                   -1000         -1001               
   196 r.200                 3002.21       2.85803               
   197 r.201                    1001             2               
   198 r.202                   -1001         -1001               
   199 r.203                 2002.17       1.35924               
   200 r.204                    1001             2               
   201 r.205                   -1001         -1001               
   202 r.206                 3001.44       2.14085               
   203 r.207                       2             2               
   204 r.208                      -2         -1001               
   205 r.209                 999.261      0.728622               
   206 r.210                    1000             2               
   207 r.211                   -1000         -1001               
   208 r.212                  2999.3        1.8431               
   209 r.213                -998.532      -999.313               
   210 r.214                -998.572      -998.572               
   211 r.215                -998.532      -999.313               
   212 r.216                -998.572      -998.572               
   213 r.217                -997.095      -998.497               
   214 r.218                -996.165      -997.567               
   215 r.219                 2.94457      -998.497               
   216 r.220                 3.87458      -997.567               
   217 r.221                -996.165      -998.334               
   218 r.222                 3.83462      -997.157               
   219 r.223                 3.87458      -998.334               
   220 r.224                 1003.87      -997.157               
   221 r.225                    1001             2               
   222 r.226                   -1001         -1001               
   223 r.227                 2999.26       1.23864               
   224 r.228                    1001             2               
   225 r.229                   -1001         -1001               
   226 r.230                 1998.33       2.85803               
   227 r.231                    1000             2               
   228 r.232                   -1000         -1001               
   229 r.233                 2999.26       1.35924               
   230 r.234                       2             2               
   231 r.235                      -2         -1001               
   232 r.236                 997.567       2.14085               
   233 r.237                    1001             2               
   234 r.238                   -1001         -1001               
   235 r.239                 2996.36      0.728622               
   236 r.240                    1001             2               
   237 r.241                   -1001         -1001               
   238 r.242                 1995.43        1.8431               
   239 r.243                    1001             2               
   240 r.244                   -1001         -1001               
   241 r.245                 3000.93      -998.334               
   242 r.246                    1001             2               
   243 r.247                   -1001         -1001               
   244 r.248                    2000      -997.157               
   245 r.249                       2             2               
   246 r.250                      -2         -1001               
   247 r.251                 997.095      0.929542               
   248 r.252                    1000             2               
   249 r.253                   -1000         -1001               
   250 r.254                 1997.57       2.27818               
   251 r.255                    1001             2               
   252 r.256                   -1001         -1001               
   253 r.257                  999.07       1.50289               
   254 r.258                    1001             2               
   255 r.259                   -1001         -1001               
   256 r.260                    2000        2.4329               

   No. Column name       Activity     Lower bound   Upper bound
------ ------------    ------------- ------------- -------------
     1 tt                    5.89826             0               
     2 s_1_1        *              1             0             1 
     3 t_1_1                 2.90508             0               
     4 s_1_7        *              0             0             1 
     5 s_2_1        *              0             0             1 
     6 t_2_1                  2.4329             0               
     7 s_2_7        *              1             0             1 
     8 s_1_2        *              1             0             1 
     9 t_1_2                 1.66644             0               
    10 s_1_8        *              1             0             1 
    11 s_2_2        *              0             0             1 
    12 t_2_2                 1.66644             0               
    13 s_2_8        *              0             0             1 
    14 s_1_3        *              0             0             1 
    15 t_1_3                 1.66644             0               
    16 s_2_3        *              1             0             1 
    17 t_2_3                  2.4329             0               
    18 s_1_4        *              1             0             1 
    19 t_1_4                 4.57375             0               
    20 s_2_4        *              0             0             1 
    21 t_2_4                 4.57375             0               
    22 s_1_5        *              1             0             1 
    23 t_1_5                 3.83462             0               
    24 s_2_5        *              0             0             1 
    25 t_2_5                 1003.87             0               
    26 s_1_6        *              1             0             1 
    27 t_1_6                 5.30237             0               
    28 s_2_6        *              0             0             1 
    29 t_2_6                 5.30237             0               
    30 t_1_7                 1000.93             0               
    31 t_2_7                       0             0               
    32 t_1_8                       0             0               
    33 t_2_8                       0             0               
    34 r_1_1_2      *              0             0             1 
    35 u_1_1_2      *              1             0             1 
    36 r_2_1_2      *              1             0             1 
    37 u_2_1_2      *              0             0             1 
    38 r_1_1_3      *              1             0             1 
    39 u_1_1_3      *              0             0             1 
    40 r_2_1_3      *              1             0             1 
    41 u_2_1_3      *              0             0             1 
    42 r_1_1_4      *              0             0             1 
    43 u_1_1_4      *              0             0             1 
    44 r_2_1_4      *              1             0             1 
    45 u_2_1_4      *              0             0             1 
    46 r_1_1_5      *              0             0             1 
    47 u_1_1_5      *              0             0             1 
    48 r_2_1_5      *              1             0             1 
    49 u_2_1_5      *              0             0             1 
    50 r_1_1_8      *              0             0             1 
    51 u_1_1_8      *              1             0             1 
    52 r_2_1_8      *              1             0             1 
    53 u_2_1_8      *              0             0             1 
    54 r_1_2_3      *              1             0             1 
    55 u_1_2_3      *              0             0             1 
    56 r_2_2_3      *              1             0             1 
    57 u_2_2_3      *              0             0             1 
    58 r_1_2_4      *              0             0             1 
    59 u_1_2_4      *              0             0             1 
    60 r_2_2_4      *              1             0             1 
    61 u_2_2_4      *              0             0             1 
    62 r_1_2_5      *              0             0             1 
    63 u_1_2_5      *              0             0             1 
    64 r_2_2_5      *              1             0             1 
    65 u_2_2_5      *              0             0             1 
    66 r_1_2_7      *              1             0             1 
    67 u_1_2_7      *              0             0             1 
    68 r_2_2_7      *              1             0             1 
    69 u_2_2_7      *              0             0             1 
    70 r_1_3_5      *              1             0             1 
    71 u_1_3_5      *              0             0             1 
    72 r_2_3_5      *              1             0             1 
    73 u_2_3_5      *              0             0             1 
    74 r_1_3_7      *              1             0             1 
    75 u_1_3_7      *              0             0             1 
    76 r_2_3_7      *              0             0             1 
    77 u_2_3_7      *              1             0             1 
    78 r_1_4_5      *              0             0             1 
    79 u_1_4_5      *              1             0             1 
    80 r_2_4_5      *              1             0             1 
    81 u_2_4_5      *              0             0             1 
    82 r_1_4_7      *              1             0             1 
    83 u_1_4_7      *              0             0             1 
    84 r_2_4_7      *              1             0             1 
    85 u_2_4_7      *              0             0             1 
    86 r_1_7_8      *              1             0             1 
    87 u_1_7_8      *              0             0             1 
    88 r_2_7_8      *              1             0             1 
    89 u_2_7_8      *              0             0             1 

Integer feasibility conditions:

KKT.PE: max.abs.err = 4.55e-13 on row 190
        max.rel.err = 7.57e-17 on row 190
        High quality

KKT.PB: max.abs.err = 3.05e-14 on row 187
        max.rel.err = 1.58e-14 on row 187
        High quality

End of output
